p wcnf 151 227 10
5 -1 0
5 -2 0
5 -3 0
5 -4 0
5 -5 0
5 -6 0
5 -7 0
5 -8 0
5 -9 0
5 -10 0
5 -11 0
5 -12 0
5 -13 0
5 -14 0
5 -15 0
5 -16 0
5 -17 0
5 -18 0
5 -19 0
5 -20 0
5 -21 0
5 -22 0
5 -23 0
5 -24 0
5 -25 0
5 -26 0
5 -27 0
5 -28 0
5 -29 0
5 -30 0
5 -31 0
5 -32 0
5 -33 0
5 -34 0
5 -35 0
5 -36 0
5 -37 0
5 -38 0
5 -39 0
5 -40 0
5 -41 0
5 -42 0
5 -43 0
5 -44 0
5 -45 0
5 -46 0
5 -47 0
5 -48 0
5 -49 0
5 -50 0
5 -51 0
5 -52 0
5 -53 0
5 -54 0
5 -55 0
5 -56 0
5 -57 0
5 -58 0
5 -59 0
5 -60 0
5 -61 0
5 -62 0
5 -63 0
5 -64 0
5 -65 0
5 -66 0
5 -67 0
5 -68 0
5 -69 0
5 -70 0
5 -71 0
5 -72 0
5 -73 0
5 -74 0
5 -75 0
5 -76 0
5 -77 0
5 -78 0
5 -79 0
5 -80 0
5 -81 0
5 -82 0
5 -83 0
5 -84 0
5 -85 0
5 -86 0
5 -87 0
5 -88 0
5 -89 0
5 -90 0
5 -91 0
5 -92 0
5 -93 0
5 -94 0
5 -95 0
5 -96 0
5 -97 0
5 -98 0
5 -99 0
5 -100 0
5 -101 0
5 -102 0
5 -103 0
5 -104 0
5 -105 0
5 -106 0
5 -107 0
5 -108 0
5 -109 0
5 -110 0
5 -111 0
5 -112 0
5 -113 0
5 -114 0
5 -115 0
5 -116 0
5 -117 0
5 -118 0
5 -119 0
5 -120 0
5 -121 0
5 -122 0
5 -123 0
5 -124 0
5 -125 0
5 -126 0
5 -127 0
5 -128 0
5 -129 0
5 -130 0
5 -131 0
5 -132 0
5 -133 0
5 -134 0
5 -135 0
5 -136 0
5 -137 0
5 -138 0
5 -139 0
5 -140 0
5 -141 0
5 -142 0
5 -143 0
5 -144 0
5 -145 0
5 -146 0
5 -147 0
5 -148 0
5 -149 0
5 -150 0
10 1 2 3 4 5 6 7 8 9 10 11 12 13 14 15 16 17 18 19 20 21 22 23 24 25 26 27 28 29 30 31 32 33 34 35 36 37 38 39 40 41 42 43 44 45 46 47 48 49 50 51 52 53 54 55 56 57 58 59 60 61 62 63 64 65 66 67 68 69 70 71 72 73 74 75 76 77 78 79 80 81 82 83 84 85 86 87 88 89 90 91 92 93 94 95 96 97 98 99 100 101 102 103 104 105 106 107 108 109 110 111 112 113 114 115 116 117 118 119 120 121 122 123 124 125 126 127 128 129 130 131 132 133 134 135 136 137 138 139 140 141 142 143 144 145 146 147 148 149 150 0
10 151 0
x 10 1 76 78 79 81 82 84 86 87 88 89 90 91 94 95 97 99 102 105 106 110 111 115 116 117 119 120 121 125 126 127 131 132 133 135 136 139 140 141 142 144 150 151 0
x 10 2 76 78 79 81 82 83 89 90 94 95 100 102 103 104 106 110 112 113 114 116 117 118 119 120 121 124 125 126 130 131 132 133 136 138 140 141 142 143 144 145 151 0
x 10 3 77 78 81 84 85 87 90 92 95 96 101 102 104 105 106 107 112 113 114 115 119 120 127 129 136 137 138 140 141 142 143 145 151 0
x 10 4 76 77 78 79 84 85 86 88 89 92 93 94 98 99 100 102 104 106 107 110 113 119 123 124 126 129 132 133 135 139 141 142 143 144 145 148 150 151 0
x 10 5 76 77 78 80 86 90 96 99 100 101 104 105 107 109 110 114 116 117 118 119 120 121 122 123 125 126 129 130 131 133 134 139 140 142 146 147 148 150 151 0
x 10 6 76 77 78 79 82 83 86 87 88 89 91 92 93 95 96 97 98 99 101 103 105 107 108 111 112 114 115 116 119 122 123 127 129 131 132 133 134 135 136 139 144 146 147 151 0
x 10 7 76 77 81 82 84 85 86 87 89 93 96 97 100 102 104 105 107 108 112 113 115 116 117 120 125 126 128 129 131 133 136 137 138 139 141 142 143 147 151 0
x 10 8 76 80 86 90 92 93 94 95 96 97 98 100 105 106 112 115 117 120 121 124 126 128 129 133 134 135 137 140 141 142 143 145 148 149 150 151 0
x 10 9 76 77 78 79 80 81 87 89 91 98 101 102 105 107 108 110 111 112 113 116 118 119 121 123 131 133 137 138 140 142 143 144 147 148 151 0
x 10 10 80 81 83 84 85 89 95 97 101 102 103 106 107 108 110 111 113 114 118 119 124 127 128 129 134 135 136 138 143 146 147 148 150 151 0
x 10 11 77 78 80 81 83 84 85 87 89 90 91 93 94 96 98 99 100 101 102 103 106 108 114 115 117 118 119 120 121 123 126 127 128 130 132 135 136 139 141 142 144 145 146 147 148 149 150 151 0
x 10 12 76 77 81 82 83 84 85 86 90 92 94 95 96 97 98 100 101 102 103 104 105 106 108 111 113 115 117 118 119 120 121 122 124 125 127 128 130 132 133 134 135 136 137 142 144 150 151 0
x 10 13 78 80 82 84 85 88 93 94 95 96 99 101 102 105 106 107 108 110 112 115 117 118 122 123 124 129 130 131 132 133 134 135 137 141 148 149 151 0
x 10 14 79 89 97 99 100 101 106 110 111 112 113 114 116 117 118 121 122 123 125 127 131 132 136 137 140 141 142 144 147 148 149 150 151 0
x 10 15 76 79 80 84 85 86 87 91 92 95 96 98 102 103 106 109 110 112 115 117 119 123 129 134 137 144 145 147 148 150 151 0
x 10 16 77 78 79 82 83 84 85 87 88 89 90 93 94 96 97 99 102 105 108 112 114 120 122 123 124 128 130 132 134 135 136 139 140 141 142 143 147 148 149 151 0
x 10 17 76 78 80 81 82 84 85 88 89 91 92 93 95 96 97 98 99 100 101 102 103 104 107 108 109 110 114 118 120 124 126 127 128 129 130 133 134 135 136 138 139 142 144 151 0
x 10 18 78 79 81 86 87 90 91 92 96 97 100 102 103 105 109 110 111 112 113 116 117 121 122 123 124 125 126 127 128 131 132 140 141 144 147 151 0
x 10 19 77 78 79 80 81 85 86 87 89 91 92 93 95 96 97 98 99 100 102 103 104 105 107 109 112 115 116 120 121 122 125 130 131 132 133 140 141 143 144 145 146 151 0
x 10 20 76 79 82 83 86 87 88 89 90 91 92 93 95 96 99 102 103 105 107 109 111 112 113 118 119 120 123 125 128 129 130 137 138 140 142 143 145 147 148 150 151 0
x 10 21 76 77 78 79 80 81 83 85 86 88 89 91 95 96 98 99 102 103 104 106 108 113 114 118 120 122 123 126 127 128 130 131 132 133 135 136 138 139 143 144 145 146 150 151 0
x 10 22 77 78 81 83 84 86 90 93 95 97 101 102 103 110 111 112 114 117 120 129 130 133 135 136 138 144 145 146 149 151 0
x 10 23 76 78 81 82 84 86 88 91 92 93 95 96 98 99 100 105 110 111 112 115 116 119 123 125 126 127 128 129 134 137 141 143 144 147 149 151 0
x 10 24 76 79 81 83 84 86 87 88 89 92 96 103 104 107 108 109 110 112 114 120 122 125 126 129 131 132 133 134 136 137 139 142 144 145 146 149 151 0
x 10 25 76 79 80 81 83 85 87 93 94 97 98 101 102 105 107 108 111 114 115 116 117 118 119 121 122 124 125 126 127 128 129 133 134 136 138 139 144 146 147 148 149 150 151 0
x 10 26 81 82 83 85 88 89 90 94 95 96 100 104 105 107 109 110 111 112 114 115 118 120 121 124 128 130 133 135 139 140 141 143 144 145 149 150 151 0
x 10 27 76 78 82 85 86 88 93 94 99 102 103 104 105 106 107 108 109 110 112 115 116 118 119 124 126 129 130 131 137 138 139 142 145 148 151 0
x 10 28 76 80 82 85 87 88 90 91 92 93 94 95 96 98 99 100 103 104 105 109 110 111 112 113 114 115 116 117 118 122 123 125 126 130 131 133 134 135 138 139 140 142 143 145 146 147 148 149 151 0
x 10 29 76 79 80 83 84 85 89 90 92 97 98 100 101 103 104 106 107 109 110 112 115 118 120 122 124 126 129 130 133 134 136 139 142 143 144 145 147 148 151 0
x 10 30 79 80 82 83 84 85 86 88 90 93 94 95 99 102 103 104 105 107 108 109 110 111 112 114 115 116 117 120 123 126 127 131 132 135 137 139 148 151 0
x 10 31 78 79 81 82 84 86 88 90 91 92 93 94 96 97 99 100 102 105 107 108 112 115 116 117 118 120 121 126 127 129 132 135 136 139 141 142 146 149 150 151 0
x 10 32 78 79 81 82 83 86 88 90 93 96 99 100 102 103 106 109 111 112 114 117 118 121 123 124 127 128 130 135 138 140 141 146 148 149 150 151 0
x 10 33 76 77 78 83 85 89 90 91 94 95 97 99 102 104 105 106 108 110 111 112 114 115 116 120 123 126 129 130 133 134 136 138 139 140 141 143 144 145 148 151 0
x 10 34 79 82 86 87 89 90 92 93 94 95 102 104 105 111 115 120 127 133 136 137 138 140 142 143 145 147 150 151 0
x 10 35 76 77 78 81 83 84 86 88 89 91 95 96 100 101 102 104 105 107 111 112 114 115 118 121 124 125 126 127 128 129 130 134 136 138 139 140 142 143 146 148 149 150 151 0
x 10 36 76 78 81 83 84 85 86 88 89 90 93 94 96 97 98 99 100 104 107 108 111 115 120 122 123 127 128 129 130 133 134 135 137 140 141 142 145 149 150 151 0
x 10 37 79 80 82 83 84 86 89 91 92 94 95 96 101 103 104 107 108 110 111 112 114 115 116 119 122 127 128 131 133 134 139 140 142 143 146 147 149 151 0
x 10 38 76 80 81 84 89 90 92 93 95 96 97 100 102 103 104 105 108 110 111 112 115 116 119 120 122 123 124 126 127 128 131 134 135 138 139 143 145 147 150 151 0
x 10 39 78 80 82 83 84 87 89 93 94 97 98 102 107 108 109 111 112 113 114 116 117 122 125 126 128 132 135 136 138 139 141 142 146 147 148 149 150 151 0
x 10 40 79 82 83 84 87 89 90 91 94 96 98 100 101 103 105 106 109 110 112 113 114 115 120 123 125 126 129 131 132 138 143 146 148 149 150 151 0
x 10 41 78 79 81 83 85 94 95 96 97 98 99 100 103 105 106 107 117 119 121 125 126 128 130 132 136 138 140 143 144 147 148 149 151 0
x 10 42 77 79 80 81 87 88 90 94 96 97 98 101 103 104 106 108 109 110 114 115 116 119 122 124 125 126 127 128 129 130 133 135 136 140 141 143 145 146 151 0
x 10 43 78 90 93 94 95 101 104 105 109 111 112 113 115 116 118 121 122 123 124 125 128 133 134 135 137 139 140 141 142 145 147 148 149 150 151 0
x 10 44 76 78 79 80 81 82 86 90 91 94 96 97 99 102 103 106 107 108 110 111 113 115 116 118 119 120 123 124 125 127 130 131 132 133 137 138 139 140 141 146 147 148 149 150 151 0
x 10 45 80 81 83 84 85 87 89 90 91 92 93 94 97 98 99 100 101 105 109 112 114 117 120 122 124 126 127 128 129 130 133 134 136 137 138 140 143 144 145 149 150 151 0
x 10 46 77 79 80 81 84 86 87 91 93 97 98 99 101 107 109 110 111 114 117 121 126 129 130 131 133 136 142 143 145 147 148 149 150 151 0
x 10 47 76 78 80 84 85 87 89 90 91 92 93 96 98 100 108 110 111 112 115 116 119 120 122 126 128 129 135 139 141 142 143 146 147 151 0
x 10 48 76 77 78 80 83 85 86 87 90 91 92 96 97 98 99 100 105 106 108 109 111 113 116 117 119 120 121 123 126 129 131 132 133 135 136 139 141 144 146 147 151 0
x 10 49 78 79 80 81 83 84 85 86 89 91 93 96 98 99 100 102 104 110 113 114 115 116 117 121 122 123 124 128 131 132 133 136 138 140 142 143 144 148 149 151 0
x 10 50 76 78 84 85 88 89 90 93 97 98 99 102 109 112 116 117 118 120 124 128 134 135 138 140 145 146 147 148 151 0
x 10 51 76 83 84 90 95 96 98 103 105 108 109 116 118 119 121 122 123 124 127 129 130 131 134 135 139 140 141 144 146 147 149 150 151 0
x 10 52 77 78 79 82 83 84 85 87 88 91 92 95 97 103 104 105 106 108 111 114 115 116 117 118 122 123 128 129 130 131 134 135 136 137 141 142 143 147 151 0
x 10 53 76 77 79 80 82 85 86 87 89 90 92 93 94 97 99 100 103 104 106 107 109 114 115 117 118 121 124 126 128 129 131 134 136 137 141 147 148 149 151 0
x 10 54 77 79 80 81 84 85 87 89 90 93 95 96 97 101 104 107 109 110 115 116 121 122 124 126 127 128 129 134 136 139 141 143 147 150 151 0
x 10 55 76 79 80 83 84 85 88 93 94 95 100 101 102 103 104 105 106 110 111 113 114 115 118 122 125 126 127 128 131 132 134 135 136 137 139 140 141 143 146 147 148 151 0
x 10 56 76 79 81 83 84 85 86 87 88 92 95 96 97 99 100 101 104 109 110 111 113 115 116 119 121 123 124 125 126 127 129 132 133 134 137 138 141 142 145 148 150 151 0
x 10 57 77 78 84 86 88 91 93 98 100 101 102 104 106 108 113 115 119 120 121 125 128 129 130 132 133 136 138 141 149 151 0
x 10 58 76 78 80 81 82 83 85 86 87 90 96 97 98 99 101 102 103 104 105 108 109 112 113 116 117 119 121 123 125 126 127 129 131 132 135 140 142 145 146 147 148 151 0
x 10 59 76 78 79 81 83 84 85 86 90 92 93 97 99 100 101 102 104 107 110 111 112 113 114 117 118 122 123 126 127 129 130 131 133 134 135 136 138 141 142 145 146 151 0
x 10 60 77 79 80 82 84 87 88 89 91 92 93 94 98 100 101 102 105 109 110 111 115 119 120 121 122 123 124 125 131 133 135 136 137 140 146 151 0
x 10 61 76 79 80 82 83 86 87 89 92 94 95 97 99 100 105 108 109 110 111 112 114 116 117 118 119 120 123 124 126 128 129 130 131 132 135 136 137 138 141 143 146 149 151 0
x 10 62 77 79 80 81 82 84 87 88 89 91 93 94 95 96 100 102 103 104 105 108 111 112 115 116 117 120 121 124 126 127 128 131 136 139 140 141 142 144 145 147 149 151 0
x 10 63 77 81 83 86 88 89 91 92 93 95 97 98 99 104 106 109 110 111 112 113 115 116 117 120 124 125 127 130 132 133 136 138 139 140 141 144 145 146 147 148 150 151 0
x 10 64 77 79 85 86 89 90 94 97 100 104 105 108 109 110 112 113 116 117 119 120 123 124 125 126 127 129 134 137 141 143 145 146 147 149 150 151 0
x 10 65 81 83 86 88 94 97 99 100 103 105 107 109 113 116 120 121 123 125 126 127 128 129 131 134 135 136 138 139 143 144 147 148 149 150 151 0
x 10 66 76 79 82 83 84 85 86 87 89 90 91 93 94 95 98 105 106 107 113 114 116 118 122 124 126 132 139 140 141 142 143 144 147 148 150 151 0
x 10 67 76 79 81 82 84 86 88 89 92 94 95 96 98 102 103 107 108 112 113 114 117 118 120 121 124 125 126 127 129 130 132 134 136 138 140 141 143 149 150 151 0
x 10 68 78 81 82 84 87 89 90 91 93 95 97 101 102 103 104 106 107 111 114 115 118 119 120 122 123 128 131 132 134 135 136 137 138 139 141 142 144 146 147 148 149 150 151 0
x 10 69 78 79 82 83 87 88 89 90 93 97 99 100 103 109 110 114 116 117 118 119 120 121 123 124 125 126 128 129 131 132 134 136 138 140 142 144 145 147 149 150 151 0
x 10 70 77 79 80 82 85 88 89 91 93 97 100 101 102 104 107 114 115 118 121 123 124 125 129 132 133 134 136 139 140 141 142 143 151 0
x 10 71 77 82 83 87 88 90 91 95 97 98 103 104 106 107 109 110 111 112 115 116 118 119 120 121 123 124 125 126 130 131 132 133 135 137 138 141 142 143 144 148 150 151 0
x 10 72 78 80 81 84 85 87 88 89 90 91 92 93 95 98 99 101 102 105 106 108 109 111 112 113 115 118 119 122 123 124 127 128 129 130 131 133 136 137 139 140 141 142 145 147 148 150 151 0
x 10 73 77 78 79 80 81 83 86 88 91 93 96 98 106 108 110 112 114 116 118 120 122 123 125 126 128 129 134 136 137 138 140 141 142 143 144 145 146 147 148 149 151 0
x 10 74 76 81 83 84 85 87 91 94 95 100 105 108 109 112 114 115 117 118 119 120 121 125 126 131 132 133 137 138 139 140 143 145 146 148 149 150 151 0
x 10 75 76 82 88 90 91 93 95 97 101 102 105 106 107 108 109 111 112 115 117 118 122 123 124 125 126 128 133 134 136 138 140 142 148 149 150 151 0
